results_rootrelaxation/bin018_060_029.srr.sol
solution status: optimal solution found
objective value:                                    0
_var2725_                          0.0616018345106785 	(obj:0)
_var2728_                         0.00302450857505845 	(obj:0)
_var2737_                          0.0488439248802577 	(obj:0)
_var2773_                           0.275506826110057 	(obj:0)
_var2791_                           0.141448361070616 	(obj:0)
_var2797_                           0.277994686385005 	(obj:0)
_var2798_                          0.0874195700394833 	(obj:0)
_var2801_                           0.098158596048708 	(obj:0)
_var2802_                          0.0923798132171579 	(obj:0)
_var2830_                           0.168450435020397 	(obj:0)
_var2833_                           0.102791211354568 	(obj:0)
_var2844_                          0.0498597824903854 	(obj:0)
_var2849_                            0.19469936934961 	(obj:0)
_var2852_                           0.049745127340122 	(obj:0)
_var2854_                           0.148851737204896 	(obj:0)
_var2856_                           0.153098096502908 	(obj:0)
_var2870_                         0.00929609585640072 	(obj:0)
_var2871_                           0.040108379685527 	(obj:0)
_var2873_                          0.0933236365561026 	(obj:0)
_var2874_                          0.0790026362283097 	(obj:0)
_var2876_                          0.0191949967384306 	(obj:0)
_var2878_                          0.0873852241752894 	(obj:0)
_var2885_                           0.428602358721975 	(obj:0)
_var2891_                            0.20426825789202 	(obj:0)
_var2898_                          0.0147125454993843 	(obj:0)
_var2903_                           0.344011430642249 	(obj:0)
_var2905_                           0.100879995566039 	(obj:0)
_var2914_                           0.110517765019136 	(obj:0)
_var2915_                          0.0371180425954743 	(obj:0)
_var2917_                           0.350020355475519 	(obj:0)
_var2933_                           0.141481733403199 	(obj:0)
_var2960_                           0.124998091481113 	(obj:0)
_var2968_                           0.187339753313216 	(obj:0)
_var2978_                            0.17454500987432 	(obj:0)
_var2986_                          0.0932076674195378 	(obj:0)
_var2998_                           0.100990522404054 	(obj:0)
_var2999_                           0.163139463249417 	(obj:0)
_var3003_                           0.199190499279734 	(obj:0)
_var3006_                          0.0839250032997833 	(obj:0)
_var3008_                           0.200204551155336 	(obj:0)
_var3012_                           0.129953186763296 	(obj:0)
_var3014_                           0.189811398781831 	(obj:0)
_var3015_                           0.158262371854126 	(obj:0)
_var3017_                          0.0977681378809194 	(obj:0)
_var3018_                          0.0575890788710993 	(obj:0)
_var3019_                          0.0351461176676292 	(obj:0)
_var3022_                          0.0649239416397324 	(obj:0)
_var3024_                           0.084566798115195 	(obj:0)
_var3032_                           0.197298027021111 	(obj:0)
_var3035_                          0.0260011087736004 	(obj:0)
_var3036_                          0.0536703634464063 	(obj:0)
_var3039_                           0.143004242651771 	(obj:0)
_var3043_                          0.0740169967732381 	(obj:0)
_var3046_                          0.0241468926361965 	(obj:0)
_var3051_                          0.0889432249111473 	(obj:0)
_var3056_                          0.0334128392310233 	(obj:0)
_var3058_                          0.0115251246989679 	(obj:0)
_var3060_                          0.0977572760391495 	(obj:0)
_var3061_                         0.00304873616618001 	(obj:0)
_var3063_                           0.113849972282874 	(obj:0)
_var3067_                           0.211375591861515 	(obj:0)
_var3068_                          0.0475411275079646 	(obj:0)
_var3070_                          0.0295246946787072 	(obj:0)
_var3073_                          0.0511675852106728 	(obj:0)
_var3074_                            0.25887880798154 	(obj:0)
_var3075_                           0.415054089240949 	(obj:0)
_var3076_                           0.174405375568551 	(obj:0)
_var3077_                          0.0747658941534367 	(obj:0)
_var3078_                           0.169809653137145 	(obj:0)
_var3080_                           0.100934044423374 	(obj:0)
_var3081_                           0.240770725519192 	(obj:0)
_var3083_                            0.13115939422148 	(obj:0)
_var3084_                           0.256520379990266 	(obj:0)
_var3085_                          0.0318850848109508 	(obj:0)
_var3086_                          0.0262727029442887 	(obj:0)
_var3088_                          0.0347320177986517 	(obj:0)
_var3092_                            0.11084630289619 	(obj:0)
_var3093_                          0.0721735823164201 	(obj:0)
_var3095_                           0.129334203562265 	(obj:0)
_var3096_                           0.112658527839039 	(obj:0)
_var3097_                          0.0290825482444971 	(obj:0)
_var3100_                           0.147273578772181 	(obj:0)
_var3105_                          0.0435928129451473 	(obj:0)
_var3107_                          0.0595574410761475 	(obj:0)
_var3108_                          0.0297456663086195 	(obj:0)
_var3110_                            0.11491185263506 	(obj:0)
_var3115_                           0.234412949470118 	(obj:0)
_var3116_                           0.383503519880469 	(obj:0)
_var3119_                           0.104024716620404 	(obj:0)
_var3120_                           0.146475430410254 	(obj:0)
_var3121_                          0.0353558609400405 	(obj:0)
_var3122_                          0.0138244630080701 	(obj:0)
_var3123_                           0.169651339118824 	(obj:0)
_var3124_                          0.0222266941605817 	(obj:0)
_var3127_                          0.0873019678869904 	(obj:0)
_var3128_                            0.18479929695497 	(obj:0)
_var3131_                           0.199024119502762 	(obj:0)
_var3133_                          0.0305094296818107 	(obj:0)
_var3136_                           0.138526469390794 	(obj:0)
_var3140_                            0.26316793466903 	(obj:0)
_var3142_                          0.0220983707572472 	(obj:0)
_var3143_                         0.00531124351118519 	(obj:0)
_var3145_                           0.126359812154943 	(obj:0)
_var3146_                          0.0771136285492861 	(obj:0)
_var3147_                          0.0941216184305021 	(obj:0)
_var3149_                            0.30901170254797 	(obj:0)
_var3150_                           0.138894871662531 	(obj:0)
_var3151_                          0.0900455906595486 	(obj:0)
_var3152_                          0.0510103468685397 	(obj:0)
_var3153_                           0.138868795575379 	(obj:0)
_var3155_                          0.0268239150893883 	(obj:0)
_var3156_                           0.116100376305923 	(obj:0)
_var3159_                           0.145232084024499 	(obj:0)
_var3160_                          0.0828563290810506 	(obj:0)
_var3161_                           0.077021508813199 	(obj:0)
_var3165_                          0.0107745318463736 	(obj:0)
_var3166_                           0.193373294428083 	(obj:0)
_var3168_                          0.0343502059712265 	(obj:0)
_var3169_                          0.0715308753729782 	(obj:0)
_var3170_                           0.129136911612131 	(obj:0)
_var3173_                            0.21369537598783 	(obj:0)
_var3174_                          0.0310248457921605 	(obj:0)
_var3175_                            0.09502078587931 	(obj:0)
_var3178_                          0.0781080640340704 	(obj:0)
_var3179_                          0.0106792985112518 	(obj:0)
_var3180_                           0.178474079102955 	(obj:0)
_var3181_                           0.110974802277357 	(obj:0)
_var3182_                          0.0570463366172569 	(obj:0)
_var3183_                          0.0224313280346375 	(obj:0)
_var3185_                           0.140620309096274 	(obj:0)
_var3191_                            0.10755352169801 	(obj:0)
_var3195_                          0.0878221684124129 	(obj:0)
_var3196_                          0.0324733111205293 	(obj:0)
_var3197_                           0.115304105973316 	(obj:0)
_var3198_                           0.159654463425271 	(obj:0)
_var3201_                          0.0156865015008593 	(obj:0)
_var3205_                           0.322934570177075 	(obj:0)
_var3207_                           0.111421460915931 	(obj:0)
_var3209_                          0.0387713161196829 	(obj:0)
_var3210_                           0.129175516617797 	(obj:0)
_var3212_                           0.065358041811654 	(obj:0)
_var3213_                          0.0839015015440814 	(obj:0)
_var3214_                          0.0436446993885237 	(obj:0)
_var3215_                            0.12208567043666 	(obj:0)
_var3218_                          0.0427474373161467 	(obj:0)
_var3220_                           0.135905577638148 	(obj:0)
_var3222_                         0.00125068903547904 	(obj:0)
_var3224_                          0.0714441149846083 	(obj:0)
_var3227_                           0.229268641936955 	(obj:0)
_var3229_                          0.0426928873663058 	(obj:0)
_var3230_                           0.019980954809132 	(obj:0)
